
Starting CP-SAT solver v9.15.6755
Parameters: random_seed: 2026074342 max_time_in_seconds: 2500 log_search_progress: true cp_model_presolve: true linearization_level: 2 num_search_workers: 4 cp_model_probing_level: 2 symmetry_level: 2

Initial satisfaction model '': (model_fingerprint: 0xdf80aa2853c51b23)
#Variables: 724 (604 primary variables)
  - 724 Booleans in [0,1]
#kBoolAnd: 110 (#enforced: 110) (#literals: 330)
#kBoolOr: 110 (#enforced: 110) (#literals: 220)
#kExactlyOne: 87 (#literals: 261)
#kLinear1: 36 (#enforced: 6)
#kLinear2: 336 (#enforced: 336) (#complex_domain: 110)
#kLinear3: 1'600 (#enforced: 6)
#kLinearN: 1'132 (#enforced: 243) (#terms: 9'111)

Starting presolve at 0.00s
  6.49e-04s  0.00e+00d  [DetectDominanceRelations] 
  8.56e-03s  0.00e+00d  [PresolveToFixPoint] #num_loops=3 #num_dual_strengthening=1 
  3.42e-05s  0.00e+00d  [ExtractEncodingFromLinear] #potential_supersets=100 
  2.52e-04s  0.00e+00d  [DetectDuplicateColumns] 
  9.94e-05s  0.00e+00d  [DetectDuplicateConstraints] #duplicates=9 
[Symmetry] Graph for symmetry has 4'855 nodes and 15'612 arcs.
[Symmetry] Symmetry computation done. time: 0.00111761 dtime: 0.00183339
[SAT presolve] num removable Booleans: 220 / 622
[SAT presolve] num trivial clauses: 0
[SAT presolve] [0s] clauses:2'708 literals:7'370 vars:506 one_side_vars:66 simple_definition:1 singleton_clauses:0
[SAT presolve] [0.000225112s] clauses:2'707 literals:7'363 vars:506 one_side_vars:66 simple_definition:1 singleton_clauses:0
[SAT presolve] [0.000667839s] clauses:2'230 literals:6'560 vars:380 one_side_vars:71 simple_definition:67 singleton_clauses:0
  1.14e-04s  0.00e+00d  [DetectDuplicateConstraintsWithDifferentEnforcements] #without_enforcements=4 
  5.39e-03s  2.29e-03d  [Probe] #probed=1'288 #fixed_bools=12 #equiv=8 #new_binary_clauses=1'129 
  5.01e-04s  3.15e-04d  [MaxClique] Merged 589 constraints with 1'340 literals into 517 constraints with 1'221 literals
  7.82e-04s  0.00e+00d  [DetectDominanceRelations] 
  3.11e-03s  0.00e+00d  [PresolveToFixPoint] #num_loops=1 #num_dual_strengthening=1 
  1.19e-03s  0.00e+00d  [ProcessAtMostOneAndLinear] 
  9.80e-05s  0.00e+00d  [DetectDuplicateConstraints] #duplicates=5 
  7.65e-05s  0.00e+00d  [DetectDuplicateConstraintsWithDifferentEnforcements] 
  3.87e-03s  1.12e-04d  [DetectDominatedLinearConstraints] #relevant_constraints=819 #num_inclusions=548 #num_redundant=6 
  1.22e-04s  0.00e+00d  [DetectDifferentVariables] 
  7.57e-04s  8.10e-05d  [ProcessSetPPC] #relevant_constraints=2'974 #num_inclusions=71 
  2.84e-04s  3.34e-05d  [TransformClausesToExactlyOne] #num_amos=504 #num_clauses=1'661 #num_checked=1'661 
  5.19e-05s  0.00e+00d  [DetectEncodedComplexDomains] 
  3.22e-05s  9.00e-08d  [FindAlmostIdenticalLinearConstraints] #num_tested_pairs=1 
  9.34e-04s  1.34e-03d  [FindBigAtMostOneAndLinearOverlap] 
  1.46e-03s  1.20e-03d  [FindBigVerticalLinearOverlap] #blocks=1 #saved_nz=31 
  3.79e-04s  6.70e-04d  [FindBigHorizontalLinearOverlap] #linears=456 
  3.25e-04s  2.68e-05d  [MergeClauses] #num_collisions=18 #num_merges=18 #num_saved_literals=90 
  7.74e-04s  0.00e+00d  [DetectDominanceRelations] 
  3.00e-03s  0.00e+00d  [PresolveToFixPoint] #num_loops=2 #num_dual_strengthening=1 
  7.57e-04s  0.00e+00d  [DetectDominanceRelations] 
  2.91e-03s  0.00e+00d  [PresolveToFixPoint] #num_loops=1 #num_dual_strengthening=1 
  1.94e-04s  0.00e+00d  [DetectDuplicateColumns] 
  8.98e-05s  0.00e+00d  [DetectDuplicateConstraints] 
[Symmetry] Graph for symmetry has 4'291 nodes and 13'477 arcs.
[Symmetry] Symmetry computation done. time: 0.000868249 dtime: 0.00134045
[SAT presolve] num removable Booleans: 93 / 475
[SAT presolve] num trivial clauses: 0
[SAT presolve] [0s] clauses:2'105 literals:6'242 vars:449 one_side_vars:147 simple_definition:82 singleton_clauses:0
[SAT presolve] [0.000204438s] clauses:2'105 literals:6'057 vars:449 one_side_vars:196 simple_definition:66 singleton_clauses:0
[SAT presolve] [0.000274299s] clauses:2'099 literals:6'050 vars:447 one_side_vars:197 simple_definition:61 singleton_clauses:0
  1.50e-04s  0.00e+00d  [DetectDuplicateConstraintsWithDifferentEnforcements] 
  5.67e-03s  1.96e-03d  [Probe] #probed=1'276 #new_binary_clauses=711 
  4.35e-04s  3.25e-04d  [MaxClique] Merged 500 constraints with 1'117 literals into 491 constraints with 1'115 literals
  7.89e-04s  0.00e+00d  [DetectDominanceRelations] 
  3.12e-03s  0.00e+00d  [PresolveToFixPoint] #num_loops=1 #num_dual_strengthening=1 
  1.14e-03s  0.00e+00d  [ProcessAtMostOneAndLinear] 
  1.35e-04s  0.00e+00d  [DetectDuplicateConstraints] 
  9.23e-05s  0.00e+00d  [DetectDuplicateConstraintsWithDifferentEnforcements] 
  3.21e-03s  9.43e-05d  [DetectDominatedLinearConstraints] #relevant_constraints=815 #num_inclusions=490 
  1.30e-04s  0.00e+00d  [DetectDifferentVariables] 
  7.16e-04s  7.58e-05d  [ProcessSetPPC] #relevant_constraints=3'012 #num_inclusions=92 
  3.03e-04s  3.27e-05d  [TransformClausesToExactlyOne] #num_amos=491 #num_clauses=1'658 #num_checked=1'658 
  5.21e-05s  0.00e+00d  [DetectEncodedComplexDomains] 
  3.97e-05s  1.80e-07d  [FindAlmostIdenticalLinearConstraints] #num_tested_pairs=2 
  9.22e-04s  1.29e-03d  [FindBigAtMostOneAndLinearOverlap] 
  1.43e-03s  1.15e-03d  [FindBigVerticalLinearOverlap] #blocks=2 #saved_nz=74 
  3.62e-04s  6.05e-04d  [FindBigHorizontalLinearOverlap] #linears=452 
  3.57e-04s  2.58e-05d  [MergeClauses] #num_collisions=80 #num_merges=80 #num_saved_literals=221 
  8.11e-04s  0.00e+00d  [DetectDominanceRelations] 
  3.08e-03s  0.00e+00d  [PresolveToFixPoint] #num_loops=2 #num_dual_strengthening=1 
  7.96e-04s  0.00e+00d  [DetectDominanceRelations] 
  2.99e-03s  0.00e+00d  [PresolveToFixPoint] #num_loops=1 #num_dual_strengthening=1 
  1.78e-04s  0.00e+00d  [DetectDuplicateColumns] 
  1.19e-04s  0.00e+00d  [DetectDuplicateConstraints] 
[Symmetry] Graph for symmetry has 4'228 nodes and 13'050 arcs.
[Symmetry] Symmetry computation done. time: 0.00087279 dtime: 0.0013106
[SAT presolve] num removable Booleans: 91 / 473
[SAT presolve] num trivial clauses: 0
[SAT presolve] [0s] clauses:2'087 literals:6'024 vars:447 one_side_vars:197 simple_definition:61 singleton_clauses:0
[SAT presolve] [0.000191705s] clauses:2'087 literals:6'024 vars:447 one_side_vars:197 simple_definition:61 singleton_clauses:0
[SAT presolve] [0.000250025s] clauses:2'087 literals:6'024 vars:447 one_side_vars:197 simple_definition:61 singleton_clauses:0
  1.47e-04s  0.00e+00d  [DetectDuplicateConstraintsWithDifferentEnforcements] 
  5.72e-03s  1.94e-03d  [Probe] #probed=1'276 #new_binary_clauses=711 
  4.42e-04s  3.17e-04d  [MaxClique] 
  8.30e-04s  0.00e+00d  [DetectDominanceRelations] 
  3.12e-03s  0.00e+00d  [PresolveToFixPoint] #num_loops=1 #num_dual_strengthening=1 
  1.13e-03s  0.00e+00d  [ProcessAtMostOneAndLinear] 
  1.22e-04s  0.00e+00d  [DetectDuplicateConstraints] 
  1.10e-04s  0.00e+00d  [DetectDuplicateConstraintsWithDifferentEnforcements] 
  1.53e-03s  6.75e-05d  [DetectDominatedLinearConstraints] #relevant_constraints=817 #num_inclusions=364 
  1.39e-04s  0.00e+00d  [DetectDifferentVariables] 
  7.40e-04s  7.15e-05d  [ProcessSetPPC] #relevant_constraints=3'006 #num_inclusions=74 
  2.94e-04s  3.27e-05d  [TransformClausesToExactlyOne] #num_amos=489 #num_clauses=1'658 #num_checked=1'658 
  7.78e-05s  0.00e+00d  [DetectEncodedComplexDomains] 
  5.35e-05s  9.00e-08d  [FindAlmostIdenticalLinearConstraints] #num_tested_pairs=1 
  9.02e-04s  1.19e-03d  [FindBigAtMostOneAndLinearOverlap] 
  1.40e-03s  1.03e-03d  [FindBigVerticalLinearOverlap] #blocks=3 #saved_nz=190 
  3.56e-04s  5.71e-04d  [FindBigHorizontalLinearOverlap] #linears=454 
  3.58e-04s  2.58e-05d  [MergeClauses] #num_collisions=80 #num_merges=80 #num_saved_literals=221 
  8.51e-04s  0.00e+00d  [DetectDominanceRelations] 
  3.20e-03s  0.00e+00d  [PresolveToFixPoint] #num_loops=2 #num_dual_strengthening=1 
  2.93e-05s  0.00e+00d  [MergeNoOverlap] 
  2.65e-05s  0.00e+00d  [MergeNoOverlap2D] 

Presolve summary:
  - 34 affine relations were detected.
  - rule 'TODO dual: only one blocking constraint?' was applied 888 times.
  - rule 'TODO dual: tighten at most one' was applied 8 times.
  - rule 'TODO linear inclusion: superset is equality' was applied 451 times.
  - rule 'affine: new relation' was applied 34 times.
  - rule 'at_most_one: removed literals' was applied 71 times.
  - rule 'at_most_one: size one' was applied 70 times.
  - rule 'at_most_one: transformed into max clique' was applied 2 times.
  - rule 'bool_or: implications' was applied 50 times.
  - rule 'bool_or: only one literal' was applied 12 times.
  - rule 'bool_or: removed enforcement literal' was applied 557 times.
  - rule 'deductions: 776 stored' was applied 1 time.
  - rule 'duplicate: merged rhs of linear constraint' was applied 13 times.
  - rule 'duplicate: removed constraint' was applied 14 times.
  - rule 'duplicate: removed enforced constraint' was applied 4 times.
  - rule 'enforcement: false literal' was applied 37 times.
  - rule 'enforcement: true literal' was applied 12 times.
  - rule 'exactly_one: removed literals' was applied 29 times.
  - rule 'exactly_one: satisfied' was applied 7 times.
  - rule 'exactly_one: singleton' was applied 3 times.
  - rule 'exactly_one: size two' was applied 26 times.
  - rule 'exactly_one: x and not(x)' was applied 6 times.
  - rule 'incompatible linear: add implication' was applied 126 times.
  - rule 'linear + amo: empty after processing' was applied 5 times.
  - rule 'linear + amo: extracted enforcement literal' was applied 50 times.
  - rule 'linear + amo: trivial linear constraint' was applied 2 times.
  - rule 'linear inclusion: redundant containing constraint' was applied 2 times.
  - rule 'linear inclusion: redundant included constraint' was applied 3 times.
  - rule 'linear inclusion: sparsify superset' was applied 1 time.
  - rule 'linear matrix: common vertical rectangle' was applied 6 times.
  - rule 'linear1: x in domain' was applied 30 times.
  - rule 'linear2: convert ax + by != cte to clauses' was applied 242 times.
  - rule 'linear2: convert implied ax + by == cte to clauses' was applied 114 times.
  - rule 'linear2: implied ax + by = cte has only one solution' was applied 8 times.
  - rule 'linear: always true' was applied 431 times.
  - rule 'linear: coefficient strengthening by increasing it' was applied 2 times.
  - rule 'linear: empty' was applied 1 time.
  - rule 'linear: extracted at most one (max)' was applied 1 time.
  - rule 'linear: fixed or dup variables' was applied 879 times.
  - rule 'linear: negative clause' was applied 1'287 times.
  - rule 'linear: negative reified and' was applied 74 times.
  - rule 'linear: never in domain' was applied 5 times.
  - rule 'linear: positive at most one' was applied 48 times.
  - rule 'linear: positive equal one' was applied 1 time.
  - rule 'linear: reduced variable domains' was applied 8 times.
  - rule 'linear: remapped using affine relations' was applied 22 times.
  - rule 'presolve: 86 unused variables removed.' was applied 1 time.
  - rule 'presolve: iteration' was applied 3 times.
  - rule 'probing: bool_or reduced to implication' was applied 28 times.
  - rule 'probing: simplified clauses' was applied 12 times.
  - rule 'setppc: bool_or in at_most_one' was applied 6 times.
  - rule 'setppc: exactly_one included in linear' was applied 1 time.
  - rule 'setppc: reduced linear coefficients' was applied 1 time.
  - rule 'setppc: removed dominated constraints' was applied 89 times.

Presolved satisfaction model '': (model_fingerprint: 0x4a45d3514f43befa)
#Variables: 479 (411 primary variables)
  - 473 Booleans in [0,1]
  - 5 in [0,2]
  - 1 in [0,3]
#kAtMostOne: 60 (#literals: 237)
#kBoolAnd: 264 (#enforced: 264) (#literals: 693)
#kBoolAndClauses: 80 (#enforced: 80 #multi: 80) (#literals: 381)
#kBoolOr: 1'498 (#literals: 4'564)
#kExactlyOne: 51 (#literals: 204)
#kLinear3: 9 (#enforced: 6)
#kLinearN: 811 (#enforced: 120) (#terms: 5'468)
[Symmetry] Graph for symmetry has 3'986 nodes and 12'863 arcs.
[Symmetry] Symmetry computation done. time: 0.000759082 dtime: 0.00126464

Preloading model.
#Model   0.10s var:479/479 constraints:2773/2773

Starting search at 0.10s with 4 workers.
3 full problem subsolvers: [default_lp, max_lp, no_lp]
1 first solution subsolver: [fj]
2 interleaved subsolvers: [feasibility_pump, rins/rens]
2 helper subsolvers: [neighborhood_helper, synchronization_agent]

#Model  41.61s var:478/479 constraints:2755/2773
#Model 2068.33s var:477/479 constraints:2754/2773

Task timing                   n [     min,      max]      avg      dev     time         n [     min,      max]      avg      dev    dtime
        'default_lp':         1 [  41.66m,   41.66m]   41.66m   0.00ns   41.66m         2 [  2.08ms,   39.49m]   19.75m   19.75m   39.49m
  'feasibility_pump':     12390 [ 25.00us, 133.69ms]   1.69ms   1.23ms   20.97s     12386 [282.40us, 112.30ms] 293.18us   1.01ms    3.63s
                'fj':      8917 [ 12.22ms, 299.02ms] 138.93ms  10.56ms   20.65m      8917 [  8.98ms, 100.14ms] 100.01ms 964.10us   14.86m
            'max_lp':         1 [  41.66m,   41.66m]   41.66m   0.00ns   41.66m         2 [ 87.24ms,   54.12m]   27.06m   27.06m   54.12m
             'no_lp':         1 [  41.66m,   41.66m]   41.66m   0.00ns   41.66m         2 [  1.77ms,    1.43h]   42.93m   42.93m    1.43h
         'rins/rens':     11035 [845.99us, 193.32ms] 112.28ms  41.93ms   20.65m     11025 [263.75us, 100.30ms]  68.26ms  37.23ms   12.54m

Search stats     Bools   Conflicts    Branches  Restarts  BacktrackToRoot   Backtrack     BoolPropag  IntegerPropag
  'default_lp':    473     211'473   7'452'858     1'367        1'148'020   1'653'107     73'928'623     90'094'391
      'max_lp':    473      97'484   9'512'752       588        1'455'540   1'898'732     92'651'403    117'731'288
       'no_lp':    473  22'128'799  29'183'020    78'690          530'176  22'453'349  1'863'733'445    479'787'160

SAT formula      Fixed  Equiv  Total  VarLeft  BinaryClauses  PermanentClauses  TemporaryClauses
  'default_lp':      2      1    473      470          2'542            46'819             9'731
      'max_lp':      2      1    473      470          2'542            45'782             6'599
       'no_lp':      2      1    473      470          2'542           132'047             8'240

SAT stats        ClassicMinim   LitRemoved  LitRemovedBinary   LitLearned  LitForgotten   Subsumed
  'default_lp':       185'144    2'203'911         1'206'171    6'230'212     3'981'733     77'713
      'max_lp':        83'594    1'089'237           464'598    2'514'391     1'501'406     32'913
       'no_lp':    19'963'448  336'249'995        85'532'447  517'046'555   396'774'441  6'540'009

Vivification       Clauses  Decisions  LitTrue  Subsumed  LitRemoved  DecisionReused  Conflicts
  'default_lp':  1'185'393  6'925'146        0    12'378     132'431         324'974      1'115
      'max_lp':  1'461'161  9'045'037        0    13'808     150'244         363'300      1'098
       'no_lp':    378'018  3'183'451        0    23'232     303'838          90'165        976

Clause deletion    at_true  l_and_not(l)  to_binary  sub_conflict  sub_extra  sub_decisions  sub_eager  sub_vivify  sub_probing  sub_inpro  blocked  eliminated   forgotten    promoted   conflicts
    'default_lp':      492             0          2        76'631        484          3'004      1'082      12'378        1'718      9'501        0           0     111'158     408'735     211'473
        'max_lp':      489             0          1        32'577        200          1'009        336      13'808        2'001      5'769        0           0      49'583     189'151      97'484
         'no_lp':    8'293             0          2     6'429'277     39'181        316'870    110'732      23'232        3'166    120'619        0           0  14'939'617  49'726'330  22'128'799

Lp stats         Component  Iterations  AddedCuts  OPTIMAL  DUAL_F.  DUAL_U.
  'default_lp':          1  28'490'723     95'324  309'027        1  179'510
      'max_lp':          1  14'703'969     75'268   33'875   78'089   33'956

Lp dimension        Final dimension of first component
  'default_lp':   380 rows, 345 columns, 14843 entries
      'max_lp':  1832 rows, 479 columns, 38433 entries

Lp debug         CutPropag  CutEqPropag   Adjust  Overflow        Bad  BadScaling
  'default_lp':          0           47  179'509         0  2'932'491           0
      'max_lp':          0          119   33'953         0  2'214'545           0

Lp pool          Constraints  Updates  Simplif  Merged  Shortened  Split  Strengthened       Cuts/Call
  'default_lp':       10'108   17'317        0       0         83      0             3  95'324/154'198
      'max_lp':       12'370   22'623        0       0         77      0         1'621  75'268/142'166

Lp Cut            default_lp  max_lp
          CG_FF:       1'462     109
           CG_K:         818      11
          CG_KL:         744       4
           CG_R:       1'559      62
          CG_RB:          52      12
         CG_RBP:          29      11
         Clique:           -     121
             IB:          80      18
       MIR_1_FF:         687     788
        MIR_1_K:         158      31
       MIR_1_KL:         512      44
        MIR_1_R:         600     437
       MIR_1_RB:           7       2
      MIR_1_RBP:           1       1
      MIR_1_RLT:           -   7'309
       MIR_2_FF:         653     816
        MIR_2_K:         132     186
       MIR_2_KL:         368      98
        MIR_2_R:         697     827
       MIR_2_RB:          14      13
      MIR_2_RBP:           2       8
       MIR_3_FF:         283     200
        MIR_3_K:          46      30
       MIR_3_KL:         124      19
        MIR_3_R:         325     262
       MIR_3_RB:           9       9
      MIR_3_RBP:           9       5
       MIR_4_FF:          91      64
        MIR_4_K:          19      12
       MIR_4_KL:          37       8
        MIR_4_R:         226     231
       MIR_4_RB:           4      11
      MIR_4_RBP:           3       5
       MIR_5_FF:          24      19
        MIR_5_K:           4       5
       MIR_5_KL:           7       1
        MIR_5_R:         129     174
       MIR_5_RB:           3       4
      MIR_5_RBP:           3      12
       MIR_6_FF:           8      10
        MIR_6_K:           4       1
       MIR_6_KL:           -       1
        MIR_6_R:          92     208
       MIR_6_RB:           4       6
      MIR_6_RBP:           2      11
   ZERO_HALF_FF:         435     601
    ZERO_HALF_K:         103      16
   ZERO_HALF_KL:         135       3
    ZERO_HALF_R:      84'428  62'354
   ZERO_HALF_RB:          15       2
  ZERO_HALF_RBP:         177      76

LNS stats       Improv/Calls  Closed  Difficulty  TimeLimit
  'rins/rens':   11028/11028     50%    7.48e-01       0.10

LS stats                                    Batches  Restarts/Perturbs    LinMoves    GenMoves  CompoundMoves  Bactracks  WeightUpdates  ScoreComputed
                             'fj_restart':      331                117   8'609'840           0              0          0      7'432'993     15'641'257
                    'fj_restart_compound':      405                113           0   4'452'897        270'548  2'090'953         10'184     73'652'254
                'fj_restart_compound_obj':      337                116           0   3'629'913        275'494  1'677'022          7'450     61'225'866
            'fj_restart_compound_perturb':      946                127           0  10'504'986        374'712  5'064'864         31'194    173'762'551
        'fj_restart_compound_perturb_obj':      310                109           0   3'340'786        241'908  1'549'216          7'140     56'300'654
                       'fj_restart_decay':      463                107  14'322'723           0              0          0        613'684      8'850'604
              'fj_restart_decay_compound':      486                134           0   5'768'628        935'503  2'416'253          6'328     89'338'571
          'fj_restart_decay_compound_obj':    1'035                120           0  13'122'540      2'100'764  5'510'613         13'201    191'342'278
      'fj_restart_decay_compound_perturb':      512                129           0   6'164'795        991'578  2'586'304          6'617     94'270'715
  'fj_restart_decay_compound_perturb_obj':      677                123           0   8'404'770      1'349'723  3'527'225          8'718    124'772'996
                   'fj_restart_decay_obj':      707                127  21'883'865           0              0          0        937'130     13'526'101
               'fj_restart_decay_perturb':      333                120  10'285'038           0              0          0        441'821      6'369'355
           'fj_restart_decay_perturb_obj':      396                141  12'235'741           0              0          0        524'867      7'568'426
                         'fj_restart_obj':      815                115  19'424'536           0              0          0     17'925'157     41'393'539
                     'fj_restart_perturb':      558                137  14'569'884           0              0          0     12'731'960     27'272'527
                 'fj_restart_perturb_obj':      606                126  15'618'977           0              0          0     13'604'174     29'823'000

Solution repositories    Added  Queried  Synchro
    'alternative_path':      0        0        0
      'best_solutions':      0        0        0
   'fj solution hints':  1'953        0    1'953
        'lp solutions':  1'082   11'035    1'082
                'pump':      0        0

Improving bounds shared    Num  Sym
                'max_lp':    1    0
                 'no_lp':    1    0

Clauses shared    #Exported  #Imported  #BinaryRead  #BinaryTotal
   'default_lp':      1'899     60'466          329           329
       'max_lp':      2'083     60'043          329           329
        'no_lp':     60'168      3'917          329           329

LRAT_status: NA
CpSolverResponse summary:
status: UNKNOWN
objective: NA
best_bound: NA
integers: 358
booleans: 473
conflicts: 211473
branches: 7452858
propagations: 73928623
integer_propagations: 90094391
restarts: 1367
lp_iterations: 28490723
walltime: 2500.03
usertime: 2500.03
deterministic_time: 12416.5
gap_integral: 0

{
  "board_size": 22,
  "parity_proved": 0,
  "target": 34,
  "child_id": 2242,
  "child_count": 2640,
  "partition": "unknown_pair_x_diag_plus_twos_x_diag_minus_twos",
  "build_seconds": 0.0799412727355957,
  "workers": 4,
  "requested_seed": 2026074342,
  "effective_seed": 2026074342,
  "main_diagonal_pair": [
    5,
    14
  ],
  "pair_index": 93,
  "diag_plus_twos": 16,
  "diag_minus_twos": 16,
  "pair_excess": 10,
  "residual_certificate_slack": 102,
  "analytic_minimum_line_defect": 24,
  "analytic_defect_details": {
    "row_costs": {
      "12": 6,
      "13": 3,
      "14": 0,
      "15": 0,
      "16": 0,
      "17": 0
    },
    "column_costs": {
      "12": 6,
      "13": 3,
      "14": 0,
      "15": 0,
      "16": 0,
      "17": 0
    },
    "plus_cost": 24,
    "minus_cost": 0,
    "row_column_minimum": 0
  },
  "maximal_line_constraints": 2455,
  "analytic_infeasible": false,
  "allowed_points": 242,
  "status": "UNKNOWN",
  "proof_method": "cp_sat_all_lines_with_certificate_profile_cuts",
  "elapsed_seconds": 2500.0332157611847,
  "branches": 7452858,
  "conflicts": 211473
}
